NAME: Random_55_2
ELLAPSED_TIME_(ms): 0
TOUR_SIZE: 1402.8478
TOUR_SECTION
0
22
21
45
49
44
6
9
24
43
16
8
26
5
39
54
4
48
42
20
19
14
31
35
28
11
47
52
29
46
18
38
36
50
27
41
25
30
13
3
23
12
17
15
53
37
2
33
32
10
34
40
1
7
51
0
EOF
